SAT
-114 -49 75 22 -123 61 -48 -57 7 80 -83 122 -120 121 99 -63 -58 -88 -79 -98 78 21 -54 -110 -68 38 -105 -59 66 16 10 69 -119 -35 -19 -103 -44 -85 15 -60 -109 101 -28 -8 -64 87 -55 70 46 97 81 -116 51 124 24 -74 13 -20 -102 -72 -125 -34 94 -112 90 17 26 115 29 -111 -108 71 4 65 56 -9 -2 117 33 43 -95 -113 -77 39 -31 76 -30 100 50 -18 -91 -82 -14 41 32 27 93 118 96 -84 5 -42 -53 -36 3 -104 -52 -47 12 107 -73 -45 1 -106 -11 -37 -62 92 6 89 23 -25 67 40 -86 0
